Cost: 637
0-45-29-5-37-20-15-0
0-7-35-19-14-11-38-0
0-27-13-8-46-34-0
0-6-2-30-4-0
0-26-12-40-17-0
0-39-9-32-44-3-0
0-10-31-25-18-24-49-0
0-22-28-21-36-47-48-0
0-33-1-43-42-41-23-16-0
Cost: 637
0-33-1-43-42-41-23-16-0
0-3-44-32-9-39-0
0-45-29-5-37-20-15-0
0-38-11-14-19-35-7-0
0-4-30-2-6-0
0-48-47-36-21-28-22-0
0-10-31-25-18-24-49-0
0-34-46-8-13-27-0
0-26-12-40-17-0
Cost: 637
0-45-29-5-37-20-15-0
0-7-35-19-14-11-38-0
0-27-13-8-46-34-0
0-6-2-30-4-0
0-26-12-40-17-0
0-39-9-32-44-3-0
0-10-31-25-18-24-49-0
0-22-28-21-36-47-48-0
0-33-1-43-42-41-23-16-0
Cost: 637
0-45-29-5-37-20-15-0
0-39-9-32-44-3-0
0-16-23-41-42-43-1-33-0
0-27-13-8-46-34-0
0-6-2-30-4-0
0-10-31-25-18-24-49-0
0-7-35-19-14-11-38-0
0-22-28-21-36-47-48-0
0-17-40-12-26-0
Cost: 637
0-6-2-30-4-0
0-34-46-8-13-27-0
0-26-12-40-17-0
0-45-29-5-37-20-15-0
0-16-23-41-42-43-1-33-0
0-10-31-25-18-24-49-0
0-3-44-32-9-39-0
0-48-47-36-21-28-22-0
0-7-35-19-14-11-38-0
Cost: 637
0-3-44-32-9-39-0
0-10-31-25-18-24-49-0
0-26-12-40-17-0
0-4-30-2-6-0
0-7-35-19-14-11-38-0
0-16-23-41-42-43-1-33-0
0-48-47-36-21-28-22-0
0-34-46-8-13-27-0
0-29-5-37-20-15-45-0
Cost: 637
0-34-46-8-13-27-0
0-49-24-18-25-31-10-0
0-17-40-12-26-0
0-22-28-21-36-47-48-0
0-15-20-37-5-29-45-0
0-3-44-32-9-39-0
0-38-11-14-19-35-7-0
0-6-2-30-4-0
0-16-23-41-42-43-1-33-0
Cost: 637
0-34-46-8-13-27-0
0-49-24-18-25-31-10-0
0-17-40-12-26-0
0-22-28-21-36-47-48-0
0-15-20-37-5-29-45-0
0-3-44-32-9-39-0
0-38-11-14-19-35-7-0
0-6-2-30-4-0
0-16-23-41-42-43-1-33-0
Cost: 637
0-34-46-8-13-27-0
0-49-24-18-25-31-10-0
0-17-40-12-26-0
0-22-28-21-36-47-48-0
0-15-20-37-5-29-45-0
0-3-44-32-9-39-0
0-38-11-14-19-35-7-0
0-6-2-30-4-0
0-16-23-41-42-43-1-33-0
Cost: 637
0-34-46-8-13-27-0
0-6-2-30-4-0
0-48-47-36-21-28-22-0
0-26-12-40-17-0
0-10-31-25-18-24-49-0
0-39-9-32-44-3-0
0-38-11-14-19-35-7-0
0-29-5-37-20-15-45-0
0-16-23-41-42-43-1-33-0
Cost: 637
0-45-29-5-37-20-15-0
0-16-23-41-42-43-1-33-0
0-34-46-8-13-27-0
0-26-12-40-17-0
0-10-31-25-18-24-49-0
0-6-2-30-4-0
0-22-28-21-36-47-48-0
0-39-9-32-44-3-0
0-38-11-14-19-35-7-0
Cost: 637
0-45-29-5-37-20-15-0
0-16-23-41-42-43-1-33-0
0-34-46-8-13-27-0
0-26-12-40-17-0
0-10-31-25-18-24-49-0
0-6-2-30-4-0
0-22-28-21-36-47-48-0
0-39-9-32-44-3-0
0-38-11-14-19-35-7-0
Cost: 637
0-45-29-5-37-20-15-0
0-16-23-41-42-43-1-33-0
0-34-46-8-13-27-0
0-26-12-40-17-0
0-10-31-25-18-24-49-0
0-6-2-30-4-0
0-22-28-21-36-47-48-0
0-39-9-32-44-3-0
0-38-11-14-19-35-7-0
Cost: 637
0-34-46-8-13-27-0
0-33-1-43-42-41-23-16-0
0-39-9-32-44-3-0
0-49-24-18-25-31-10-0
0-48-47-36-21-28-22-0
0-45-15-20-37-5-29-0
0-6-2-30-4-0
0-7-35-19-14-11-38-0
0-17-40-12-26-0
Cost: 637
0-45-29-5-37-20-15-0
0-16-23-41-42-43-1-33-0
0-34-46-8-13-27-0
0-26-12-40-17-0
0-10-31-25-18-24-49-0
0-6-2-30-4-0
0-22-28-21-36-47-48-0
0-39-9-32-44-3-0
0-38-11-14-19-35-7-0
Cost: 637
0-45-29-5-37-20-15-0
0-16-23-41-42-43-1-33-0
0-34-46-8-13-27-0
0-26-12-40-17-0
0-10-31-25-18-24-49-0
0-6-2-30-4-0
0-22-28-21-36-47-48-0
0-39-9-32-44-3-0
0-38-11-14-19-35-7-0
Cost: 637
0-45-29-5-37-20-15-0
0-16-23-41-42-43-1-33-0
0-34-46-8-13-27-0
0-26-12-40-17-0
0-10-31-25-18-24-49-0
0-6-2-30-4-0
0-22-28-21-36-47-48-0
0-39-9-32-44-3-0
0-38-11-14-19-35-7-0
Cost: 637
0-7-35-19-14-11-38-0
0-27-13-8-46-34-0
0-26-12-40-17-0
0-45-15-20-37-5-29-0
0-3-44-32-9-39-0
0-10-31-25-18-24-49-0
0-16-23-41-42-43-1-33-0
0-6-2-30-4-0
0-22-28-21-36-47-48-0
Cost: 637
0-16-23-41-42-43-1-33-0
0-10-31-25-18-24-49-0
0-26-12-40-17-0
0-6-2-30-4-0
0-45-15-20-37-5-29-0
0-48-47-36-21-28-22-0
0-7-35-19-14-11-38-0
0-27-13-8-46-34-0
0-39-9-32-44-3-0
Cost: 637
0-16-23-41-42-43-1-33-0
0-10-31-25-18-24-49-0
0-26-12-40-17-0
0-6-2-30-4-0
0-45-15-20-37-5-29-0
0-48-47-36-21-28-22-0
0-7-35-19-14-11-38-0
0-27-13-8-46-34-0
0-39-9-32-44-3-0
Cost: 637
0-16-23-41-42-43-1-33-0
0-10-31-25-18-24-49-0
0-26-12-40-17-0
0-6-2-30-4-0
0-45-15-20-37-5-29-0
0-48-47-36-21-28-22-0
0-7-35-19-14-11-38-0
0-27-13-8-46-34-0
0-39-9-32-44-3-0
Cost: 637
0-16-23-41-42-43-1-33-0
0-10-31-25-18-24-49-0
0-26-12-40-17-0
0-6-2-30-4-0
0-45-15-20-37-5-29-0
0-48-47-36-21-28-22-0
0-7-35-19-14-11-38-0
0-27-13-8-46-34-0
0-39-9-32-44-3-0
Cost: 637
0-10-31-25-18-24-49-0
0-48-47-36-21-28-22-0
0-39-9-32-44-3-0
0-4-30-2-6-0
0-27-13-8-46-34-0
0-17-40-12-26-0
0-16-23-41-42-43-1-33-0
0-38-11-14-19-35-7-0
0-45-15-20-37-5-29-0
Cost: 637
0-16-23-41-42-43-1-33-0
0-10-31-25-18-24-49-0
0-26-12-40-17-0
0-6-2-30-4-0
0-45-15-20-37-5-29-0
0-48-47-36-21-28-22-0
0-7-35-19-14-11-38-0
0-27-13-8-46-34-0
0-39-9-32-44-3-0
Cost: 637
0-7-35-19-14-11-38-0
0-27-13-8-46-34-0
0-26-12-40-17-0
0-45-15-20-37-5-29-0
0-3-44-32-9-39-0
0-10-31-25-18-24-49-0
0-16-23-41-42-43-1-33-0
0-6-2-30-4-0
0-22-28-21-36-47-48-0
Cost: 637
0-16-23-41-42-43-1-33-0
0-10-31-25-18-24-49-0
0-26-12-40-17-0
0-6-2-30-4-0
0-45-15-20-37-5-29-0
0-48-47-36-21-28-22-0
0-7-35-19-14-11-38-0
0-27-13-8-46-34-0
0-39-9-32-44-3-0
Cost: 637
0-16-23-41-42-43-1-33-0
0-10-31-25-18-24-49-0
0-26-12-40-17-0
0-6-2-30-4-0
0-45-15-20-37-5-29-0
0-48-47-36-21-28-22-0
0-7-35-19-14-11-38-0
0-27-13-8-46-34-0
0-39-9-32-44-3-0
Cost: 648
0-7-38-11-14-19-35-0
0-16-49-24-23-41-42-43-33-0
0-39-9-32-44-3-0
0-17-12-26-0
0-34-27-13-8-46-0
0-2-28-22-1-6-0
0-45-15-20-37-5-29-0
0-10-31-25-18-40-0
0-30-21-36-47-48-4-0
Cost: 640
0-3-44-32-9-39-0
0-16-23-41-42-43-1-33-0
0-26-12-40-17-0
0-46-8-34-4-0
0-45-29-48-47-36-21-0
0-7-35-19-14-11-38-0
0-27-13-15-20-37-5-0
0-30-28-22-2-6-0
0-49-24-18-25-31-10-0
Cost: 637
0-17-40-12-26-0
0-27-13-8-46-34-0
0-22-28-21-36-47-48-0
0-4-30-2-6-0
0-33-1-43-42-41-23-16-0
0-39-9-32-44-3-0
0-10-31-25-18-24-49-0
0-7-35-19-14-11-38-0
0-45-15-20-37-5-29-0
Cost: 637
0-27-13-8-46-34-0
0-33-1-43-42-41-23-16-0
0-7-35-19-14-11-38-0
0-4-30-2-6-0
0-29-5-37-20-15-45-0
0-17-40-12-26-0
0-49-24-18-25-31-10-0
0-22-28-21-36-47-48-0
0-3-44-32-9-39-0
